\ Model qp
\ LP format - for model browsing. Use MPS format to capture full model detail.
Minimize
 [ 2 z[0] ^2 + 2 z[1] ^2 + 2 z[2] ^2 + 2 z[3] ^2 + 2 z[4] ^2 + 2 z[5] ^2
   + 2 z[6] ^2 + 2 z[7] ^2 + 2 z[8] ^2 + 2 z[9] ^2 + 2 z[10] ^2
   + 2 z[11] ^2 + 2 z[12] ^2 + 2 z[13] ^2 + 2 z[14] ^2 + 2 z[15] ^2
   + 2 z[16] ^2 + 2 z[17] ^2 + 2 z[18] ^2 + 2 z[19] ^2 + 2 z[20] ^2
   + 2 z[21] ^2 + 2 z[22] ^2 + 2 z[23] ^2 + 2 z[24] ^2 + 2 z[25] ^2
   + 2 z[26] ^2 + 2 z[27] ^2 + 2 z[28] ^2 + 2 z[29] ^2 + 2 z[30] ^2
   + 2 z[31] ^2 + 2 z[32] ^2 + 2 z[33] ^2 + 2 z[34] ^2 + 2 z[35] ^2
   + 2 z[36] ^2 + 2 z[37] ^2 + 2 z[38] ^2 + 2 z[39] ^2 ] / 2 
Subject To
 set_Y[0][0]: - 180.873595505618 x[0] - 176.893869750766 x[1]
   - 160.5862095940858 x[2] - 82.77645370725944 x[3] + z[0] - y[0]
   = -80.87359550561797
 set_Y[0][1]: - 180.873595505618 x[4] - 176.893869750766 x[5]
   - 160.5862095940858 x[6] - 82.77645370725944 x[7] + z[1] - y[1]
   = -76.89386975076606
 set_Y[0][2]: - 180.873595505618 x[8] - 176.893869750766 x[9]
   - 160.5862095940858 x[10] - 82.77645370725944 x[11] + z[2] - y[2]
   = -60.58620959408582
 set_Y[0][3]: - 180.873595505618 x[12] - 176.893869750766 x[13]
   - 160.5862095940858 x[14] - 82.77645370725944 x[15] + z[3] - y[3]
   = 17.22354629274056
 set_Y[1][0]: - 191.2162921348315 x[0] - 189.745150325677 x[1]
   - 95.87825355375664 x[2] - 146.0151211408358 x[3] + z[4] - y[0]
   = -91.21629213483146
 set_Y[1][1]: - 191.2162921348315 x[4] - 189.745150325677 x[5]
   - 95.87825355375664 x[6] - 146.0151211408358 x[7] + z[5] - y[1]
   = -89.745150325677
 set_Y[1][2]: - 191.2162921348315 x[8] - 189.745150325677 x[9]
   - 95.87825355375664 x[10] - 146.0151211408358 x[11] + z[6] - y[2]
   = 4.121746446243369
 set_Y[1][3]: - 191.2162921348315 x[12] - 189.745150325677 x[13]
   - 95.87825355375664 x[14] - 146.0151211408358 x[15] + z[7] - y[3]
   = -46.01512114083576
 set_Y[2][0]: - 195.3820224719101 x[0] - 161.3265113594258 x[1]
   - 253.3330611775054 x[2] - 157.6122344888073 x[3] + z[8] - y[0]
   = -95.38202247191012
 set_Y[2][1]: - 195.3820224719101 x[4] - 161.3265113594258 x[5]
   - 253.3330611775054 x[6] - 157.6122344888073 x[7] + z[9] - y[1]
   = -61.32651135942576
 set_Y[2][2]: - 195.3820224719101 x[8] - 161.3265113594258 x[9]
   - 253.3330611775054 x[10] - 157.6122344888073 x[11] + z[10] - y[2]
   = -153.3330611775054
 set_Y[2][3]: - 195.3820224719101 x[12] - 161.3265113594258 x[13]
   - 253.3330611775054 x[14] - 157.6122344888073 x[15] + z[11] - y[3]
   = -57.61223448880733
 set_Y[3][0]: - 198.4578651685393 x[0] - 263.9977327160518 x[1]
   - 163.701140613647 x[2] - 168.6549959591409 x[3] + z[12] - y[0]
   = -98.45786516853933
 set_Y[3][1]: - 198.4578651685393 x[4] - 263.9977327160518 x[5]
   - 163.701140613647 x[6] - 168.6549959591409 x[7] + z[13] - y[1]
   = -163.9977327160518
 set_Y[3][2]: - 198.4578651685393 x[8] - 263.9977327160518 x[9]
   - 163.701140613647 x[10] - 168.6549959591409 x[11] + z[14] - y[2]
   = -63.70114061364696
 set_Y[3][3]: - 198.4578651685393 x[12] - 263.9977327160518 x[13]
   - 163.701140613647 x[14] - 168.6549959591409 x[15] + z[15] - y[3]
   = -68.65499595914086
 set_Y[4][0]: - 194.1320224719101 x[0] - 160.7995403511654 x[1]
   - 191.37467749331 x[2] - 194.1211492489533 x[3] + z[16] - y[0]
   = -94.13202247191012
 set_Y[4][1]: - 194.1320224719101 x[4] - 160.7995403511654 x[5]
   - 191.37467749331 x[6] - 194.1211492489533 x[7] + z[17] - y[1]
   = -60.79954035116537
 set_Y[4][2]: - 194.1320224719101 x[8] - 160.7995403511654 x[9]
   - 191.37467749331 x[10] - 194.1211492489533 x[11] + z[18] - y[2]
   = -91.37467749330997
 set_Y[4][3]: - 194.1320224719101 x[12] - 160.7995403511654 x[13]
   - 191.37467749331 x[14] - 194.1211492489533 x[15] + z[19] - y[3]
   = -94.12114924895327
 set_Y[5][0]: - 197.5955056179775 x[0] - 93.89015943449121 x[1]
   - 168.2426702842853 x[2] - 171.4738712535926 x[3] + z[20] - y[0]
   = -97.59550561797752
 set_Y[5][1]: - 197.5955056179775 x[4] - 93.89015943449121 x[5]
   - 168.2426702842853 x[6] - 171.4738712535926 x[7] + z[21] - y[1]
   = 6.109840565508784
 set_Y[5][2]: - 197.5955056179775 x[8] - 93.89015943449121 x[9]
   - 168.2426702842853 x[10] - 171.4738712535926 x[11] + z[22] - y[2]
   = -68.24267028428531
 set_Y[5][3]: - 197.5955056179775 x[12] - 93.89015943449121 x[13]
   - 168.2426702842853 x[14] - 171.4738712535926 x[15] + z[23] - y[3]
   = -71.47387125359261
 set_Y[6][0]: - 120.6404494382022 x[0] - 196.4547659634344 x[1]
   - 168.1860649823888 x[2] - 160.6229631667414 x[3] + z[24] - y[0]
   = -20.64044943820225
 set_Y[6][1]: - 120.6404494382022 x[4] - 196.4547659634344 x[5]
   - 168.1860649823888 x[6] - 160.6229631667414 x[7] + z[25] - y[1]
   = -96.45476596343443
 set_Y[6][2]: - 120.6404494382022 x[8] - 196.4547659634344 x[9]
   - 168.1860649823888 x[10] - 160.6229631667414 x[11] + z[26] - y[2]
   = -68.18606498238881
 set_Y[6][3]: - 120.6404494382022 x[12] - 196.4547659634344 x[13]
   - 168.1860649823888 x[14] - 160.6229631667414 x[15] + z[27] - y[3]
   = -60.62296316674136
 set_Y[7][0]: - 198.0533707865168 x[0] - 164.3155547391702 x[1]
   - 157.4360415841288 x[2] - 136.5166171595154 x[3] + z[28] - y[0]
   = -98.05337078651685
 set_Y[7][1]: - 198.0533707865168 x[4] - 164.3155547391702 x[5]
   - 157.4360415841288 x[6] - 136.5166171595154 x[7] + z[29] - y[1]
   = -64.31555473917025
 set_Y[7][2]: - 198.0533707865168 x[8] - 164.3155547391702 x[9]
   - 157.4360415841288 x[10] - 136.5166171595154 x[11] + z[30] - y[2]
   = -57.43604158412883
 set_Y[7][3]: - 198.0533707865168 x[12] - 164.3155547391702 x[13]
   - 157.4360415841288 x[14] - 136.5166171595154 x[15] + z[31] - y[3]
   = -36.51661715951546
 set_Y[8][0]: - 192.75 x[0] - 188.4169453315114 x[1]
   - 185.6655773226192 x[2] - 244.9178907512225 x[3] + z[32] - y[0]
   = -92.75
 set_Y[8][1]: - 192.75 x[4] - 188.4169453315114 x[5]
   - 185.6655773226192 x[6] - 244.9178907512225 x[7] + z[33] - y[1]
   = -88.4169453315114
 set_Y[8][2]: - 192.75 x[8] - 188.4169453315114 x[9]
   - 185.6655773226192 x[10] - 244.9178907512225 x[11] + z[34] - y[2]
   = -85.6655773226192
 set_Y[8][3]: - 192.75 x[12] - 188.4169453315114 x[13]
   - 185.6655773226192 x[14] - 244.9178907512225 x[15] + z[35] - y[3]
   = -144.9178907512225
 set_Y[9][0]: - 278 x[0] - 196.6242773843579 x[1] - 165.1260584441426 x[2]
   - 153.6667762391568 x[3] + z[36] - y[0] = -178
 set_Y[9][1]: - 278 x[4] - 196.6242773843579 x[5] - 165.1260584441426 x[6]
   - 153.6667762391568 x[7] + z[37] - y[1] = -96.62427738435788
 set_Y[9][2]: - 278 x[8] - 196.6242773843579 x[9] - 165.1260584441426 x[10]
   - 153.6667762391568 x[11] + z[38] - y[2] = -65.12605844414266
 set_Y[9][3]: - 278 x[12] - 196.6242773843579 x[13]
   - 165.1260584441426 x[14] - 153.6667762391568 x[15] + z[39] - y[3]
   = -53.6667762391568
 qc0: [ x[0] ^2 + x[4] ^2 + x[8] ^2 + x[12] ^2 ] = 1
 qc1: [ x[1] ^2 + x[5] ^2 + x[9] ^2 + x[13] ^2 ] = 1
 qc2: [ x[2] ^2 + x[6] ^2 + x[10] ^2 + x[14] ^2 ] = 1
 qc3: [ x[3] ^2 + x[7] ^2 + x[11] ^2 + x[15] ^2 ] = 1
 qc4: [ x[0] * x[1] + x[4] * x[5] + x[8] * x[9] + x[12] * x[13] ] = 0
 qc5: [ x[0] * x[2] + x[4] * x[6] + x[8] * x[10] + x[12] * x[14] ] = 0
 qc6: [ x[0] * x[3] + x[4] * x[7] + x[8] * x[11] + x[12] * x[15] ] = 0
 qc7: [ x[1] * x[2] + x[5] * x[6] + x[9] * x[10] + x[13] * x[14] ] = 0
 qc8: [ x[1] * x[3] + x[5] * x[7] + x[9] * x[11] + x[13] * x[15] ] = 0
 qc9: [ x[2] * x[3] + x[6] * x[7] + x[10] * x[11] + x[14] * x[15] ] = 0
Bounds
 -1 <= x[0] <= 1
 -1 <= x[1] <= 1
 -1 <= x[2] <= 1
 -1 <= x[3] <= 1
 -1 <= x[4] <= 1
 -1 <= x[5] <= 1
 -1 <= x[6] <= 1
 -1 <= x[7] <= 1
 -1 <= x[8] <= 1
 -1 <= x[9] <= 1
 -1 <= x[10] <= 1
 -1 <= x[11] <= 1
 -1 <= x[12] <= 1
 -1 <= x[13] <= 1
 -1 <= x[14] <= 1
 -1 <= x[15] <= 1
 z[0] free
 z[1] free
 z[2] free
 z[3] free
 z[4] free
 z[5] free
 z[6] free
 z[7] free
 z[8] free
 z[9] free
 z[10] free
 z[11] free
 z[12] free
 z[13] free
 z[14] free
 z[15] free
 z[16] free
 z[17] free
 z[18] free
 z[19] free
 z[20] free
 z[21] free
 z[22] free
 z[23] free
 z[24] free
 z[25] free
 z[26] free
 z[27] free
 z[28] free
 z[29] free
 z[30] free
 z[31] free
 z[32] free
 z[33] free
 z[34] free
 z[35] free
 z[36] free
 z[37] free
 z[38] free
 z[39] free
End
